 Code  2532
 Dimension, Fixed Cost
   100        3000
 Facility, Client, Transportation Cost
     1        3           0
     1        8           1
     1       32           0
     1       43           4
     1       44           2
     1       47           3
     1       50           3
     1       58           2
     1       72           3
     1       75           2
     1       78           4
     1       84           0
     2        1           0
     2       17           4
     2       24           3
     2       26           3
     2       29           2
     2       52           2
     2       64           1
     2       66           2
     2       71           4
     2       86           1
     3        4           3
     3       10           3
     3       17           3
     3       25           2
     3       32           3
     3       49           4
     3       62           1
     3       66           0
     3       70           1
     3       80           4
     3       82           0
     4       16           3
     4       32           4
     4       33           1
     4       40           2
     4       60           2
     4       67           1
     4       69           4
     4       76           2
     4       80           1
     5       15           0
     5       25           2
     5       33           3
     5       34           1
     5       36           1
     5       47           4
     5       60           2
     5       80           0
     5       91           1
     5       92           0
     6        5           2
     6       17           3
     6       31           1
     6       38           4
     6       39           1
     6       51           3
     6       61           0
     6       63           0
     6       70           3
     6       84           1
     6       87           2
     7       28           3
     7       91           3
     8       39           1
     8       45           4
     8       55           1
     8       62           1
     8       90           0
     8       96           0
     9       10           2
     9       13           2
     9       26           3
     9       39           0
     9       45           1
     9       56           4
     9       57           3
     9       69           0
     9       78           1
     9       86           2
     9       88           3
     9       89           0
     9       96           3
    10        2           0
    10        8           3
    10       35           4
    10       58           1
    11        1           4
    11        5           3
    11        8           0
    11       18           4
    11       24           4
    11       34           1
    11       40           3
    11       52           3
    11       59           2
    11       77           4
    11       80           0
    11       92           1
    11       95           3
    12       10           4
    12       23           0
    12       24           0
    12       53           2
    12       55           3
    12       68           3
    12       75           2
    12       79           0
    12       86           1
    13       22           0
    13       28           0
    13       29           0
    13       36           3
    13       42           3
    13       64           2
    13       81           3
    13       89           3
    13       94           4
    14        3           2
    14        8           3
    14       60           3
    14       68           0
    14       73           4
    14       90           0
    14       94           2
    14       99           3
    15        2           0
    15        7           1
    15       22           4
    15       24           3
    15       30           0
    15       44           3
    15       75           0
    15       79           1
    15       82           4
    15       94           3
    16       11           3
    16       12           4
    16       15           1
    16       18           3
    16       27           3
    16       43           3
    16       64           0
    16       70           0
    16       77           2
    16       88           2
    16       89           1
    16       92           4
    17       15           0
    17       48           4
    17       50           2
    17       65           0
    17       74           2
    17       78           1
    17       91           3
    18       12           4
    18       36           2
    18       37           2
    18       55           4
    18       58           2
    18       64           2
    18       72           3
    18       77           4
    18       88           1
    18       91           2
    18       95           4
    18      100           3
    19        1           2
    19        6           2
    19       14           1
    19       23           3
    19       31           3
    19       50           0
    19       71           2
    19       75           2
    19       86           0
    20       12           0
    20       15           4
    20       25           3
    20       31           2
    20       34           3
    20       61           0
    20       68           2
    20       88           1
    20       94           3
    21        4           0
    21       16           3
    21       33           3
    21       35           3
    21       46           1
    21       53           2
    21       59           4
    21       72           1
    21       79           0
    21       95           2
    22       27           4
    22       43           3
    22       46           4
    22       63           2
    22       69           2
    22       99           3
    22      100           0
    23       19           3
    23       26           2
    23       38           1
    23       69           3
    23       97           1
    23      100           1
    24        4           2
    24        9           0
    24       15           1
    24       24           1
    24       30           4
    24       32           0
    24       54           1
    24       83           1
    24       87           0
    24       98           2
    24       99           0
    25       11           2
    25       12           2
    25       13           3
    25       33           4
    25       36           0
    25       42           1
    25       46           4
    25       47           2
    25       48           4
    25       51           3
    25       52           1
    25       56           1
    25       63           2
    25       74           4
    25       77           4
    25       83           2
    25       85           2
    26        4           4
    26       13           3
    26       19           1
    26       20           4
    26       22           1
    26       38           1
    26       39           0
    26       52           4
    26       58           4
    26       66           4
    26       80           1
    27       12           1
    27       36           1
    27       38           0
    27       47           3
    27       50           0
    27       55           3
    27       56           2
    27       67           1
    27       85           1
    27       96           4
    28       10           4
    28       17           0
    28       20           1
    28       21           0
    28       41           4
    28       53           1
    28       55           2
    28       59           0
    28       71           0
    28       93           2
    28      100           2
    29       14           2
    29       20           0
    29       23           2
    29       30           0
    29       33           3
    29       42           0
    29       49           4
    29       51           4
    29       54           4
    29       68           1
    29       79           1
    29       84           1
    29       94           2
    30        1           4
    30       29           2
    30       34           4
    30       52           3
    30       62           3
    30       67           1
    30       74           2
    30       77           0
    30       83           2
    31       26           0
    31       37           4
    31       42           2
    31       43           3
    31       60           0
    31       61           1
    31       74           3
    31       76           0
    31       89           3
    32        8           3
    32       13           3
    32       26           1
    32       30           4
    32       31           3
    32       40           2
    32       48           4
    32       66           0
    32       73           1
    32       91           1
    32       93           4
    32       98           1
    32      100           4
    33        2           2
    33       13           1
    33       17           2
    33       22           3
    33       23           0
    33       27           1
    33       30           1
    33       33           2
    33       38           0
    33       57           1
    33       64           2
    33       65           0
    33       71           2
    33       84           4
    33       91           4
    33       92           1
    33       95           2
    33       99           1
    34       12           0
    34       19           4
    34       22           3
    34       24           4
    34       44           3
    34       47           1
    34       48           2
    34       53           0
    34       63           1
    34       80           1
    34       87           2
    35       27           3
    35       54           4
    35       57           0
    35       60           2
    35       62           1
    35       81           0
    35       89           0
    36        7           1
    36        9           0
    36       14           4
    36       16           1
    36       34           4
    36       41           4
    36       59           3
    36       76           4
    36       96           4
    36       99           2
    37        5           0
    37       10           1
    37       18           4
    37       27           3
    37       29           0
    37       37           1
    37       40           4
    37       56           1
    37       59           1
    37       68           2
    37       71           0
    37       82           3
    38        2           1
    38        8           0
    38       18           1
    38       20           2
    38       28           4
    38       32           4
    38       38           2
    38       58           2
    38       61           0
    38       65           1
    38       70           3
    38       74           4
    38       75           4
    38       80           2
    38      100           3
    39       13           3
    39       14           1
    39       29           0
    39       41           2
    39       45           2
    39       47           4
    39       49           2
    39       66           1
    39       78           4
    40        1           0
    40        9           3
    40       16           4
    40       17           4
    40       23           1
    40       25           4
    40       51           1
    40       54           2
    40       62           1
    40       65           1
    40       73           3
    41        2           1
    41        6           2
    41       19           2
    41       23           2
    41       39           0
    41       41           0
    41       75           3
    41       90           4
    42        2           4
    42       24           4
    42       47           2
    42       63           2
    42       81           2
    42       82           2
    42       91           0
    42       93           1
    43        4           1
    43        6           4
    43       14           4
    43       39           1
    43       44           3
    43       49           3
    43       61           1
    43       69           3
    43       81           3
    43       93           0
    43       97           3
    44        1           3
    44        4           3
    44       21           3
    44       26           0
    44       29           3
    44       59           1
    44       63           4
    44       66           4
    44       88           3
    45        9           3
    45       11           2
    45       36           4
    45       56           4
    45       66           0
    45       67           3
    45       76           1
    45       97           1
    46        9           0
    46       46           1
    46       57           2
    46       58           4
    46       61           0
    46       76           2
    46       99           1
    47        4           1
    47        5           1
    47       15           4
    47       21           4
    47       27           2
    47       34           0
    47       37           0
    47       39           2
    47       42           3
    47       43           3
    47       54           0
    47       78           4
    47       88           0
    47       98           2
    48        9           1
    48       13           3
    48       28           0
    48       30           1
    48       50           3
    48       55           1
    48       59           1
    48       65           4
    48       67           0
    48       72           0
    48       81           0
    48       90           1
    49       20           2
    49       23           4
    49       32           0
    49       43           3
    49       72           0
    49       76           1
    49       80           1
    49       96           4
    50        4           3
    50        6           1
    50       11           4
    50       35           0
    50       41           0
    50       48           4
    50       62           0
    50       95           3
    51        1           4
    51       15           3
    51       22           4
    51       26           0
    51       27           1
    51       37           1
    51       39           4
    51       41           4
    51       55           3
    51       62           1
    51       81           1
    51       92           1
    51       93           4
    51       95           3
    52        3           3
    52       29           1
    52       40           3
    52       44           2
    52       49           0
    52       51           3
    52       54           0
    52       70           0
    52       72           0
    52       75           1
    52       76           2
    52       79           2
    52       83           3
    52       96           3
    53       11           2
    53       28           3
    53       35           2
    53       41           2
    53       71           1
    53       74           4
    53       76           1
    53       80           1
    53       82           1
    53       88           4
    53       91           3
    53       93           4
    53       97           0
    53       99           1
    54        8           3
    54       27           3
    54       28           1
    54       52           3
    54       56           1
    54       62           2
    54       68           2
    54       82           0
    54       85           2
    54       97           4
    54      100           4
    55       21           3
    55       70           0
    55       73           4
    56        4           0
    56        5           2
    56       18           0
    56       31           4
    56       45           1
    56       49           1
    56       51           3
    57       10           3
    57       15           2
    57       16           4
    57       30           4
    57       31           3
    57       32           2
    57       49           2
    57       59           3
    57       75           4
    57       83           0
    57       92           3
    58        1           0
    58        4           3
    58       36           0
    58       50           1
    58       65           3
    58       74           0
    58       79           1
    58       84           3
    58       94           3
    58       99           4
    59        3           4
    59        8           3
    59       12           1
    59       20           2
    59       27           4
    59       33           1
    59       37           4
    59       45           3
    59       54           4
    59       70           2
    59       75           4
    59       84           3
    59       89           2
    60        1           0
    60       21           2
    60       22           1
    60       31           0
    60       48           4
    60       65           2
    60       67           3
    60       88           0
    60       89           1
    60       92           2
    60       97           0
    61        5           2
    61        7           0
    61       60           4
    61       61           1
    61       76           0
    61       84           0
    61       86           4
    62        1           0
    62        6           2
    62       14           1
    62       19           0
    62       39           3
    62       44           4
    62       45           0
    62       52           2
    62       57           3
    62       70           0
    62       97           1
    63       10           2
    63       11           3
    63       12           1
    63       43           0
    63       69           0
    63       85           2
    63       87           4
    63       94           3
    63       97           0
    64        9           0
    64       11           2
    64       28           4
    64       45           3
    64       54           4
    64       60           4
    64       62           4
    64       64           3
    64       65           3
    64       66           1
    64       67           2
    64       71           2
    64       75           0
    64       78           0
    64       84           2
    64       90           0
    64       98           2
    65       11           3
    65       14           0
    65       16           2
    65       43           2
    65       53           0
    65       69           4
    65       73           1
    65       74           4
    65       78           0
    66        6           2
    66       16           1
    66       26           3
    66       30           0
    66       35           2
    66       40           2
    66       41           1
    66       53           0
    66       77           4
    67        2           2
    67        3           2
    67        6           0
    67       23           3
    67       42           2
    67       46           2
    67       67           0
    67       70           1
    67       80           2
    67       87           4
    67       98           0
    68        7           1
    68       30           4
    68       65           4
    68       73           1
    68       77           4
    68       82           1
    68       87           4
    68       89           3
    68       98           2
    69       13           2
    69       20           4
    69       30           2
    69       40           1
    69       73           1
    69       79           4
    69       82           3
    69       83           2
    69       89           0
    69       93           2
    69       95           4
    70       22           1
    70       51           4
    70       59           4
    70       63           0
    70       64           3
    70       77           4
    70       86           1
    70       99           3
    71        5           2
    71       24           4
    71       25           2
    71       29           3
    71       45           4
    71       48           1
    71       53           4
    71       64           1
    71       78           4
    71       92           3
    72        3           2
    72       38           1
    72       44           1
    72       47           0
    72       68           1
    72       77           2
    72       87           1
    73        2           1
    73       19           2
    73       21           2
    73       33           3
    73       37           0
    73       51           2
    73       63           1
    73       90           0
    73       96           3
    74        7           2
    74       12           2
    74       18           4
    74       23           1
    74       36           0
    74       42           4
    74       46           1
    74       48           0
    74       51           1
    74       57           0
    74       65           4
    74       72           2
    74       81           4
    74       90           0
    74       95           4
    75        7           0
    75       32           3
    75       34           4
    75       46           2
    75       53           0
    75       58           4
    75       98           0
    76       15           3
    76       35           0
    76       42           2
    76       53           4
    76       55           3
    76       85           3
    77        8           0
    77       10           2
    77       20           4
    77       25           3
    77       28           4
    77       33           3
    77       39           3
    77       43           2
    77       45           1
    77       52           2
    77       57           4
    77       61           0
    77       81           4
    77       87           2
    77       95           1
    77       97           2
    78       21           4
    78       31           1
    78       38           0
    78       41           1
    78       42           3
    78       45           1
    78       48           3
    78       71           4
    78       72           0
    78       88           3
    79        2           1
    79        6           1
    79       17           1
    79       19           3
    79       24           2
    79       47           2
    79       64           2
    79       73           0
    79       82           3
    79       93           1
    80        5           2
    80        7           2
    80       15           4
    80       35           1
    80       40           1
    80       44           2
    80       61           0
    80       79           4
    80       86           1
    80       90           1
    81       18           2
    81       60           4
    81       67           3
    81       69           3
    81       72           1
    81       99           3
    82        7           1
    82       19           0
    82       29           0
    82       40           1
    82       83           0
    82       86           4
    82       87           3
    83       25           3
    83       36           0
    83       70           4
    83       74           2
    83       83           1
    84       20           1
    84       36           4
    84       38           1
    84       56           0
    84       85           1
    84       90           4
    84       97           3
    85        6           1
    85       13           2
    85       17           0
    85       19           2
    85       33           2
    85       46           0
    85       52           4
    85       54           3
    85       60           3
    85       63           1
    85       69           2
    85       78           3
    85       81           0
    85       85           1
    85       90           4
    85       96           0
    85      100           2
    86       18           3
    86       34           0
    86       50           0
    86       56           0
    86       57           1
    86       66           4
    86       67           0
    86       76           0
    86       79           3
    86       93           3
    86      100           1
    87        3           3
    87       13           2
    87       37           1
    87       42           4
    87       59           3
    87       60           0
    87       85           3
    87       91           0
    87       92           0
    87       93           4
    88        6           2
    88       26           0
    88       35           2
    88       37           0
    88       44           2
    88       50           0
    88       58           2
    88       66           4
    88       71           0
    88       85           1
    89        5           1
    89       10           2
    89       16           4
    89       21           4
    89       38           2
    89       46           2
    89       49           1
    89       68           3
    89       71           1
    89       83           3
    90        7           1
    90        9           1
    90       11           3
    90       22           0
    90       29           2
    90       43           2
    90       53           4
    90       55           0
    91        2           2
    91       11           1
    91       21           0
    91       49           1
    91       56           4
    91       57           3
    91       78           0
    91       84           1
    91       86           4
    91       91           0
    91       94           4
    92        3           4
    92        9           2
    92       31           1
    92       35           2
    92       47           2
    92       52           0
    92       54           3
    92       72           1
    92       73           1
    92       88           3
    92       98           2
    93       12           3
    93       24           4
    93       25           3
    93       28           3
    93       32           0
    93       46           0
    93       50           3
    93       55           2
    93       83           2
    93       94           4
    94       14           3
    94       17           4
    94       23           4
    94       25           4
    94       28           1
    94       34           1
    94       61           1
    94       81           3
    94       84           3
    95       18           0
    95       26           1
    95       35           3
    95       40           3
    95       41           1
    95       44           4
    95       50           3
    95       51           1
    95       56           3
    95       62           0
    95       77           2
    95       86           0
    95       89           0
    96        3           0
    96        8           0
    96       14           3
    96       20           1
    96       21           0
    96       27           4
    96       48           3
    96       58           3
    96       63           4
    96       68           1
    96       69           3
    96       85           3
    97       16           3
    97       22           2
    97       34           2
    97       64           3
    97       73           4
    97       74           1
    97       79           4
    97       95           4
    97       96           1
    97       98           1
    98        7           2
    98        9           4
    98       10           1
    98       16           2
    98       19           2
    98       37           1
    98       68           1
    98       94           4
    98       96           2
    98       98           3
    99        5           4
    99       17           3
    99       25           2
    99       31           0
    99       32           3
    99       57           1
    99       58           3
    99       87           2
    99      100           2
   100        3           2
   100       14           0
   100       18           1
   100       49           4
   100       82           1
   100       92           0
